CMPL model generation - running

CMPL version: 1.11.0
Authors: Thomas Schleiff, Mike Steglich
Distributed under the GPLv3 

create model instance ...
write model instance ...
CMPL model generation - finished

Solver - running


Welcome to IBM(R) ILOG(R) CPLEX(R) Interactive Optimizer 12.7.1.0
  with Simplex, Mixed Integer & Barrier Optimizers
5725-A06 5725-A29 5724-Y48 5724-Y49 5724-Y54 5724-Y55 5655-Y21
Copyright IBM Corp. 1988, 2017.  All Rights Reserved.

Type 'help' for a list of available commands.
Type 'help' followed by a command name for more
information on commands.

CPLEX> Specified objective sense: MINIMIZE
Selected objective  name:  line[1]
Selected RHS        name:  RHS
Selected bound      name:  BOUND
Problem '/tmp/cmpl.T24939.mps' read.
Read time = 0.08 sec. (8.25 ticks)
CPLEX> CPXPARAM_Read_APIEncoding                        "UTF-8"
Tried aggregator 3 times.
MIP Presolve eliminated 18408 rows and 29054 columns.
MIP Presolve modified 580 coefficients.
Aggregator did 1399 substitutions.
Reduced MIP has 2548 rows, 4140 columns, and 12116 nonzeros.
Reduced MIP has 3972 binaries, 0 generals, 0 SOSs, and 0 indicators.
Presolve time = 0.08 sec. (45.12 ticks)
Found incumbent of value 3684.757744 after 0.17 sec. (88.46 ticks)
Probing time = 0.01 sec. (2.67 ticks)
Tried aggregator 1 time.
MIP Presolve eliminated 0 rows and 49 columns.
Reduced MIP has 2548 rows, 4091 columns, and 12018 nonzeros.
Reduced MIP has 4091 binaries, 0 generals, 0 SOSs, and 0 indicators.
Presolve time = 0.02 sec. (11.08 ticks)
Probing time = 0.01 sec. (2.82 ticks)
Clique table members: 3522.
MIP emphasis: balance optimality and feasibility.
MIP search method: dynamic search.
Parallel mode: none, using 1 thread.
Root relaxation solution time = 0.02 sec. (18.06 ticks)

        Nodes                                         Cuts/
   Node  Left     Objective  IInf  Best Integer    Best Bound    ItCnt     Gap

*     0+    0                         3684.7577        0.0000           100.00%
*     0     0      integral     0     1722.9722     1722.9722     1154    0.00%
Elapsed time = 0.26 sec. (131.37 ticks, tree = 0.00 MB, solutions = 2)

Root node processing (before b&c):
  Real time             =    0.26 sec. (132.66 ticks)
Sequential b&c:
  Real time             =    0.00 sec. (0.00 ticks)
                          ------------
Total (root+branch&cut) =    0.26 sec. (132.66 ticks)

Solution pool: 2 solutions saved.

MIP - Integer optimal solution:  Objective =  1.7229721710e+03
Solution time =    0.26 sec.  Iterations = 1154  Nodes = 0
Deterministic time = 132.75 ticks  (510.75 ticks/sec)

CPLEX> Incumbent solution written to file '/tmp/cmpl.T24939.gsol'.
CPLEX> 
CMPL: Time used for model generation: 1 seconds
CMPL: Time used for solving the model: 1 seconds


Solution written to ASCII file: results/output_generated_conf_1/2016-06-06-4/fair-nonlinear.sol

Solver - finished
